(set-logic QF_S)
(declare-fun B () String)
(declare-fun A () String)
(assert (= (str.++  "chagiagcijeaibgdfifi" B "gdcabfcdbdgajdahhfggb")  (str.++  "chagiagcijeaibgdfifibicdj" A "cdbdgajdahhfggb") ))
(check-sat)
(get-model)
